c A SAT instance generated from a 3-CNF formula that had 100 clauses and 10 variables
p cnf 10 100
-10 3 -1 0
-5 10 -8 0
-6 -2 -8 0
-8 -6 -9 0
-7 3 2 0
-6 8 7 0
1 -3 -9 0
8 -10 -1 0
-6 7 -1 0
4 -1 -7 0
6 -7 -1 0
-10 -1 -3 0
-3 4 -9 0
10 -5 3 0
1 2 -4 0
9 -8 -3 0
-5 -6 8 0
4 -7 5 0
-9 -5 1 0
-6 -2 9 0
10 5 2 0
-9 -3 6 0
2 1 4 0
1 8 7 0
1 6 9 0
1 -7 4 0
1 8 2 0
2 -6 9 0
-9 1 7 0
-9 -3 7 0
2 -7 -10 0
-1 -7 -6 0
4 -2 10 0
-3 4 6 0
1 -5 3 0
10 -9 8 0
-9 8 7 0
-6 2 -4 0
-2 -1 -7 0
10 -2 -7 0
10 -9 -5 0
-3 6 -2 0
-4 -7 9 0
4 -5 9 0
7 6 3 0
9 -1 -5 0
8 -3 5 0
5 6 -7 0
4 8 -5 0
-9 -1 2 0
-10 1 5 0
-5 -8 -9 0
-4 -5 3 0
-9 3 -10 0
8 -9 3 0
4 5 10 0
-8 10 -4 0
10 7 -3 0
9 4 10 0
-8 -2 -3 0
-2 -7 10 0
4 10 8 0
-10 -8 -2 0
-2 -3 -4 0
4 10 6 0
-7 4 -8 0
8 -10 -3 0
-10 1 -7 0
2 -1 10 0
9 6 5 0
10 6 9 0
-10 -8 -2 0
-2 -7 5 0
3 6 -8 0
5 -4 2 0
-4 -3 1 0
3 9 1 0
10 -9 6 0
10 4 -1 0
-4 -1 3 0
-7 -5 -9 0
5 8 4 0
-2 1 4 0
-4 -3 -8 0
4 -8 -10 0
-8 7 -5 0
6 -5 -3 0
-10 4 6 0
2 -5 1 0
3 -9 -10 0
-9 10 1 0
9 5 8 0
-1 -9 7 0
-3 -9 -1 0
6 1 8 0
7 -3 2 0
-10 -7 -8 0
-9 -6 7 0
-1 2 -5 0
10 -9 1 0
